DIMENSION :15
NODE_COORD_SECTION
1 63.73633153408639 -78.68656378490593
2 48.753145480059146 17.429203396704594
3 65.15014787397655 56.295567488296115
4 -14.618447643842856 -78.25752801167604
5 -85.05439422010372 -83.40371187206404
6 -33.01509897097159 84.54402033888579
7 -98.09107211120659 -89.84235450903037
8 7.523646733485023 -36.18263664922561
9 78.43296249044877 -0.042833175463101725
10 -56.736525149298636 -1.842504789486128
11 23.033398095490497 97.16641640219626
12 -12.159612903065636 -57.392739784120515
13 31.70804673147657 -78.78425328132228
14 -7.741704134957075 49.85749426154888
15 3.8436405192385052 28.84647512469789
EOF
